words_hard_train/4863.qaiger
aag 91 16 0 1 75
2
4
8
12
18
28
34
40
82
94
106
114
122
134
152
168
183
6 2 4
10 8 4
14 11 13
16 15 4
20 18 4
22 17 21
24 7 22
26 24 5
30 24 29
32 27 31
36 34 4
38 33 37
42 39 40
44 38 41
46 43 45
48 33 35
50 36 31
52 49 51
54 25 28
56 55 31
58 23 3
60 22 2
62 59 61
64 17 19
66 20 15
68 65 67
70 62 69
72 57 70
74 53 72
76 46 75
78 47 74
80 77 79
84 80 83
86 81 82
88 85 87
90 52 73
92 91 75
96 92 94
98 93 95
100 97 99
102 63 68
104 103 71
108 105 106
110 104 107
112 109 111
116 69 114
118 68 115
120 117 119
124 123 9
126 122 8
128 125 127
130 10 12
132 131 15
136 132 135
138 133 134
140 137 139
142 128 141
144 120 142
146 112 144
148 56 71
150 149 73
154 150 153
156 151 152
158 155 157
160 146 158
162 101 160
164 88 162
166 44 4
170 167 168
172 166 169
174 171 173
176 175 79
178 174 78
180 177 179
182 164 181
i0 1 x2[3]
i1 1 x2[7]
i2 1 x2[0]
i3 1 x2[1]
i4 1 x2[2]
i5 1 x2[4]
i6 1 x2[5]
i7 1 x2[6]
i8 2 y2[6]
i9 2 y2[5]
i10 2 y2[3]
i11 2 y2[2]
i12 2 y2[0]
i13 2 y2[1]
i14 2 y2[4]
i15 2 y2[7]
o0 bool[0]
c
simplified
  !=
    invert
      2 y2
    subtract
      abs
        1 x2
      << 2
        1
