words_hard_train/4863.qaiger.qdimacs
p cnf 91 226
a 1 2 4 6 9 14 17 20 0
e 3 5 7 8 10 11 12 13 15 16 18 19 21 22 23 24 25 26 27 28 29 30 31 32 33 34 35 36 37 38 39 40 41 42 43 44 45 46 47 48 49 50 51 52 53 54 55 56 57 58 59 60 61 62 63 64 65 66 67 68 69 70 71 72 73 74 75 76 77 78 79 80 81 82 83 84 85 86 87 88 89 90 91 0
-1 -2 3 0
1 -3 0
2 -3 0
-4 -2 5 0
4 -5 0
2 -5 0
5 6 7 0
-5 -7 0
-6 -7 0
7 -2 8 0
-7 -8 0
2 -8 0
-9 -2 10 0
9 -10 0
2 -10 0
8 10 11 0
-8 -11 0
-10 -11 0
3 -11 12 0
-3 -12 0
11 -12 0
-12 2 13 0
12 -13 0
-2 -13 0
-12 14 15 0
12 -15 0
-14 -15 0
13 15 16 0
-13 -16 0
-15 -16 0
-17 -2 18 0
17 -18 0
2 -18 0
16 18 19 0
-16 -19 0
-18 -19 0
19 -20 21 0
-19 -21 0
20 -21 0
-19 20 22 0
19 -22 0
-20 -22 0
21 22 23 0
-21 -23 0
-22 -23 0
16 17 24 0
-16 -24 0
-17 -24 0
-18 15 25 0
18 -25 0
-15 -25 0
24 25 26 0
-24 -26 0
-25 -26 0
12 -14 27 0
-12 -27 0
14 -27 0
27 15 28 0
-27 -28 0
-15 -28 0
11 1 29 0
-11 -29 0
-1 -29 0
-11 -1 30 0
11 -30 0
1 -30 0
29 30 31 0
-29 -31 0
-30 -31 0
8 9 32 0
-8 -32 0
-9 -32 0
-10 7 33 0
10 -33 0
-7 -33 0
32 33 34 0
-32 -34 0
-33 -34 0
-31 34 35 0
31 -35 0
-34 -35 0
28 -35 36 0
-28 -36 0
35 -36 0
26 -36 37 0
-26 -37 0
36 -37 0
-23 37 38 0
23 -38 0
-37 -38 0
23 -37 39 0
-23 -39 0
37 -39 0
38 39 40 0
-38 -40 0
-39 -40 0
-40 41 42 0
40 -42 0
-41 -42 0
40 -41 43 0
-40 -43 0
41 -43 0
42 43 44 0
-42 -44 0
-43 -44 0
-26 36 45 0
26 -45 0
-36 -45 0
45 37 46 0
-45 -46 0
-37 -46 0
-46 -47 48 0
46 -48 0
47 -48 0
46 47 49 0
-46 -49 0
-47 -49 0
48 49 50 0
-48 -50 0
-49 -50 0
31 -34 51 0
-31 -51 0
34 -51 0
51 35 52 0
-51 -52 0
-35 -52 0
52 -53 54 0
-52 -54 0
53 -54 0
-52 53 55 0
52 -55 0
-53 -55 0
54 55 56 0
-54 -56 0
-55 -56 0
34 -57 58 0
-34 -58 0
57 -58 0
-34 57 59 0
34 -59 0
-57 -59 0
58 59 60 0
-58 -60 0
-59 -60 0
61 4 62 0
-61 -62 0
-4 -62 0
-61 -4 63 0
61 -63 0
4 -63 0
62 63 64 0
-62 -64 0
-63 -64 0
-5 -6 65 0
5 -65 0
6 -65 0
65 7 66 0
-65 -66 0
-7 -66 0
-66 67 68 0
66 -68 0
-67 -68 0
66 -67 69 0
-66 -69 0
67 -69 0
68 69 70 0
-68 -70 0
-69 -70 0
-64 70 71 0
64 -71 0
-70 -71 0
-60 -71 72 0
60 -72 0
71 -72 0
-56 -72 73 0
56 -73 0
72 -73 0
-28 35 74 0
28 -74 0
-35 -74 0
74 36 75 0
-74 -75 0
-36 -75 0
-75 76 77 0
75 -77 0
-76 -77 0
75 -76 78 0
-75 -78 0
76 -78 0
77 78 79 0
-77 -79 0
-78 -79 0
-73 -79 80 0
73 -80 0
79 -80 0
50 -80 81 0
-50 -81 0
80 -81 0
-44 -81 82 0
44 -82 0
81 -82 0
-22 -2 83 0
22 -83 0
2 -83 0
83 -84 85 0
-83 -85 0
84 -85 0
-83 84 86 0
83 -86 0
-84 -86 0
85 86 87 0
-85 -87 0
-86 -87 0
87 39 88 0
-87 -88 0
-39 -88 0
-87 -39 89 0
87 -89 0
39 -89 0
88 89 90 0
-88 -90 0
-89 -90 0
-82 90 91 0
82 -91 0
-90 -91 0
-91 0
